
(set-logic HORN)
(define-fun S_548 ((x Int)) Int (+ x 1))
(define-fun Z_2359 () Int 0)
(declare-datatypes ((Bool_392 0)) (((false_392) (true_392))))
(declare-fun diseqBool_183 (Bool_392 Bool_392) Bool)
(declare-fun isfalse_183 (Bool_392) Bool)
(declare-fun istrue_183 (Bool_392) Bool)
(assert (isfalse_183 false_392))
(assert (istrue_183 true_392))
(assert (diseqBool_183 false_392 true_392))
(assert (diseqBool_183 true_392 false_392))
(declare-fun and_394 (Bool_392 Bool_392 Bool_392) Bool)
(declare-fun or_405 (Bool_392 Bool_392 Bool_392) Bool)
(declare-fun hence_392 (Bool_392 Bool_392 Bool_392) Bool)
(declare-fun not_397 (Bool_392 Bool_392) Bool)
(assert (and_394 false_392 false_392 false_392))
(assert (and_394 false_392 true_392 false_392))
(assert (and_394 false_392 false_392 true_392))
(assert (and_394 true_392 true_392 true_392))
(assert (or_405 false_392 false_392 false_392))
(assert (or_405 true_392 true_392 false_392))
(assert (or_405 true_392 false_392 true_392))
(assert (or_405 true_392 true_392 true_392))
(assert (hence_392 true_392 false_392 false_392))
(assert (hence_392 false_392 true_392 false_392))
(assert (hence_392 true_392 false_392 true_392))
(assert (hence_392 true_392 true_392 true_392))
(assert (not_397 true_392 false_392))
(assert (not_397 false_392 true_392))
(declare-fun diseqInt (Int Int) Bool)
(declare-fun projS_239 (Int Int) Bool)
(declare-fun isS_511 (Int) Bool)
(declare-fun isZ_511 (Int) Bool)
(assert (forall ((x_70226 Int))
	(projS_239 x_70226 (S_548 x_70226))))
(assert (forall ((x_70229 Int))
	(isS_511 (S_548 x_70229))))
(assert (isZ_511 Z_2359))
(assert (forall ((x_70230 Int))
	(diseqInt (S_548 x_70230) Z_2359)))
(assert (forall ((x_70231 Int))
	(diseqInt Z_2359 (S_548 x_70231))))
(assert (forall ((x_70232 Int) (x_70233 Int))
	(=> (diseqInt x_70232 x_70233) (diseqInt (S_548 x_70232) (S_548 x_70233)))))
(declare-datatypes ((list_315 0)) (((nil_353) (cons_312 (head_624 Int) (tail_627 list_315)))))
(declare-fun diseqlist_312 (list_315 list_315) Bool)
(declare-fun head_625 (Int list_315) Bool)
(declare-fun tail_628 (list_315 list_315) Bool)
(declare-fun isnil_353 (list_315) Bool)
(declare-fun iscons_312 (list_315) Bool)
(assert (forall ((x_70235 Int) (x_70236 list_315))
	(head_625 x_70235 (cons_312 x_70235 x_70236))))
(assert (forall ((x_70235 Int) (x_70236 list_315))
	(tail_628 x_70236 (cons_312 x_70235 x_70236))))
(assert (isnil_353 nil_353))
(assert (forall ((x_70238 Int) (x_70239 list_315))
	(iscons_312 (cons_312 x_70238 x_70239))))
(assert (forall ((x_70240 Int) (x_70241 list_315))
	(diseqlist_312 nil_353 (cons_312 x_70240 x_70241))))
(assert (forall ((x_70242 Int) (x_70243 list_315))
	(diseqlist_312 (cons_312 x_70242 x_70243) nil_353)))
(assert (forall ((x_70244 Int) (x_70245 list_315) (x_70246 Int) (x_70247 list_315))
	(=> (diseqInt x_70244 x_70246) (diseqlist_312 (cons_312 x_70244 x_70245) (cons_312 x_70246 x_70247)))))
(assert (forall ((x_70244 Int) (x_70245 list_315) (x_70246 Int) (x_70247 list_315))
	(=> (diseqlist_312 x_70245 x_70247) (diseqlist_312 (cons_312 x_70244 x_70245) (cons_312 x_70246 x_70247)))))
(declare-fun eqNat_0 (Bool_392 Int Int) Bool)
(assert (eqNat_0 true_392 Z_2359 Z_2359))
(assert (forall ((x_70199 Int))
	(eqNat_0 false_392 Z_2359 (S_548 x_70199))))
(assert (forall ((z_2360 Int))
	(eqNat_0 false_392 (S_548 z_2360) Z_2359)))
(assert (forall ((x_70206 Bool_392) (y_2650 Int) (z_2360 Int))
	(=> (eqNat_0 x_70206 z_2360 y_2650) (eqNat_0 x_70206 (S_548 z_2360) (S_548 y_2650)))))
(declare-fun barbar_13 (Bool_392 Bool_392 Bool_392) Bool)
(assert (forall ((y_2651 Bool_392))
	(barbar_13 true_392 true_392 y_2651)))
(assert (forall ((x_70209 Bool_392))
	(barbar_13 x_70209 false_392 x_70209)))
(declare-fun elem_27 (Bool_392 Int list_315) Bool)
(assert (forall ((x_70210 Bool_392) (x_70211 Bool_392) (x_70212 Bool_392) (z_2361 Int) (xs_782 list_315) (x_70201 Int))
	(=> (and (eqNat_0 x_70211 x_70201 z_2361) (elem_27 x_70212 x_70201 xs_782) (barbar_13 x_70210 x_70211 x_70212)) (elem_27 x_70210 x_70201 (cons_312 z_2361 xs_782)))))
(assert (forall ((x_70201 Int))
	(elem_27 false_392 x_70201 nil_353)))
(declare-fun union_3 (list_315 list_315 list_315) Bool)
(assert (forall ((x_70216 list_315) (z_2362 Int) (xs_783 list_315) (y_2653 list_315))
	(=> (and (union_3 x_70216 xs_783 y_2653) (elem_27 true_392 z_2362 y_2653)) (union_3 x_70216 (cons_312 z_2362 xs_783) y_2653))))
(assert (forall ((x_70220 list_315) (z_2362 Int) (xs_783 list_315) (y_2653 list_315))
	(=> (and (union_3 x_70220 xs_783 y_2653) (elem_27 false_392 z_2362 y_2653)) (union_3 (cons_312 z_2362 x_70220) (cons_312 z_2362 xs_783) y_2653))))
(assert (forall ((x_70221 list_315))
	(union_3 x_70221 nil_353 x_70221)))
(assert (forall ((x_70222 list_315) (xs_784 list_315))
	(=> (and true (diseqlist_312 x_70222 xs_784) (union_3 x_70222 xs_784 xs_784)) false)))
(check-sat)
